(set-logic QF_FP)
(set-option :produce-models true)
(set-info :source |Random FP created by PyMPF|)
(set-info :category random)
(set-info :status sat)
(declare-const x Float32)
(assert (= x ((_ to_fp 8 24) #x361A2D5D)))
(declare-const y Float32)
(assert (= y (fp #b0 #b11111110 #b11111111111111111111111)))
(declare-const z Float32)
(assert (= z ((_ to_fp 8 24) #x801CC543)))
(declare-const result Float32)
(assert (= result (fp.fma RNE x y z)))
(assert (= result ((_ to_fp 8 24) #x761A2D5C)))
(check-sat)
(exit)
